\ENCODING=ISO-8859-1
\Problem name: TSP

Minimize
 obj1: x1 + 353.764713419333 x2 + 883.003149339342 x3 + 1721.63367950739 x4
       + 1713.04647928908 x5 + 1241.92625637037 x6 + 655.482991589414 x7
       + 13.6928989844993 x8 + 794.975210549675 x9 + 694.166674771202 x10
       + 318.296107806549 x11 + 634.038485521583 x12 + 774.268848004249 x13
       + 659.482713909106 x14 + 117.32810560277 x15 + 549.280407501209 x16
       + 353.764713419333 x17 + x18 + 710.556870394917 x19
       + 1371.32428420471 x20 + 1917.37296702586 x21 + 1351.17542669182 x22
       + 572.873915341957 x23 + 348.20342369431 x24 + 797.393121128509 x25
       + 752.398568713276 x26 + 659.862317450125 x27 + 831.248423184061 x28
       + 858.158066570895 x29 + 552.861027764012 x30 + 298.569668394024 x31
       + 214.263009663548 x32 + 883.003149339342 x33 + 710.556870394917 x34
       + x35 + 1002.11451982645 x36 + 1313.59979282198 x37
       + 1855.03787499485 x38 + 1234.82366968905 x39 + 870.391814301882 x40
       + 1470.57177191116 x41 + 411.663100263517 x42 + 966.761893652101 x43
       + 661.058709345487 x44 + 461.674955525273 x45 + 231.006575572356 x46
       + 925.192864537338 x47 + 745.946456389461 x48 + 1721.63367950739 x49
       + 1371.32428420471 x50 + 1002.11451982645 x51 + x52
       + 563.084115013743 x53 + 857.010711341224 x54 + 1172.58911017262 x55
       + 1717.66083622631 x56 + 1120.91775701659 x57 + 1332.01766213307 x58
       + 1940.63008978852 x59 + 1503.19555534348 x60 + 1294.31383119831 x61
       + 1228.31237259015 x62 + 1629.75371537715 x63 + 1173.53025952631 x64
       + 1713.04647928908 x65 + 1917.37296702586 x66 + 1313.59979282198 x67
       + 563.084115013743 x68 + x69 + 614.138653073202 x70
       + 1372.98637885676 x71 + 1720.67815722275 x72 + 1158.83783111542 x73
       + 1322.15953794097 x74 + 1419.68401061455 x75 + 1257.29059330568 x76
       + 1217.97814781601 x77 + 1495.01707637077 x78 + 1741.98141197068 x79
       + 1705.0782427292 x80 + 1241.92625637037 x81 + 1351.17542669182 x82
       + 1855.03787499485 x83 + 857.010711341224 x84 + 614.138653073202 x85
       + x86 + 788.40186180161 x87 + 1254.61398650155 x88
       + 556.307698267318 x89 + 1724.18905228412 x90 + 1184.90216150916 x91
       + 1477.84518074145 x92 + 1652.90649940039 x93 + 1896.53462216695 x94
       + 1183.40819647596 x95 + 1264.42168533794 x96 + 655.482991589414 x97
       + 572.873915341957 x98 + 1234.82366968905 x99 + 1172.58911017262 x100
       + 1372.98637885676 x101 + 788.40186180161 x102 + x103
       + 663.5334386329 x104 + 237.474770028833 x105 + 1306.74025905319 x106
       + 893.083285991155 x107 + 1287.89002135342 x108 + 1405.47937507925 x109
       + 1121.48401269868 x110 + 542.121249133232 x111 + 489.89232095557 x112
       + 13.6928989844993 x113 + 348.20342369431 x114 + 870.391814301882 x115
       + 1717.66083622631 x116 + 1720.67815722275 x117 + 1254.61398650155 x118
       + 663.5334386329 x119 + x120 + 805.762974245624 x121
       + 683.023470238991 x122 + 320.026025865118 x123 + 626.589125096228 x124
       + 763.942412022461 x125 + 646.792790239315 x126 + 123.595614687025 x127
       + 546.146457845585 x128 + 794.975210549675 x129 + 797.393121128509 x130
       + 1470.57177191116 x131 + 1120.91775701659 x132 + 1158.83783111542 x133
       + 556.307698267318 x134 + 237.474770028833 x135 + 805.762974245624 x136
       + x137 + 1486.81496301248 x138 + 945.599637483935 x139
       + 1382.88249768048 x140 + 1566.54473798539 x141 + 1349.24970421049 x142
       + 696.612261709101 x143 + 726.022451004193 x144 + 694.166674771202 x145
       + 752.398568713276 x146 + 411.663100263517 x147 + 1332.01766213307 x148
       + 1322.15953794097 x149 + 1724.18905228412 x150 + 1306.74025905319 x151
       + 683.023470238991 x152 + 1486.81496301248 x153 + x154
       + 619.953075587325 x155 + 250.397234618649 x156 + 107.809987834436 x157
       + 290.472341530498 x158 + 791.435600349496 x159 + 909.944372902089 x160
       + 318.296107806549 x161 + 659.862317450125 x162 + 966.761893652101 x163
       + 1940.63008978852 x164 + 1419.68401061455 x165 + 1184.90216150916 x166
       + 893.083285991155 x167 + 320.026025865118 x168 + 945.599637483935 x169
       + 619.953075587325 x170 + x171 + 439.883347760682 x172
       + 652.230674050129 x173 + 744.961226219488 x174 + 419.620558993902 x175
       + 864.292111706823 x176 + 634.038485521583 x177 + 831.248423184061 x178
       + 661.058709345487 x179 + 1503.19555534348 x180 + 1257.29059330568 x181
       + 1477.84518074145 x182 + 1287.89002135342 x183 + 626.589125096228 x184
       + 1382.88249768048 x185 + 250.397234618649 x186 + 439.883347760682 x187
       + x188 + 230.139991052681 x189 + 514.686487849999 x190
       + 748.984758639021 x191 + 1029.84500030561 x192 + 774.268848004249 x193
       + 858.158066570895 x194 + 461.674955525273 x195 + 1294.31383119831 x196
       + 1217.97814781601 x197 + 1652.90649940039 x198 + 1405.47937507925 x199
       + 763.942412022461 x200 + 1566.54473798539 x201 + 107.809987834436 x202
       + 652.230674050129 x203 + 230.139991052681 x204 + x205
       + 384.188687464163 x206 + 878.020650098301 x207 + 1016.32703429447 x208
       + 659.482713909106 x209 + 552.861027764012 x210 + 231.006575572356 x211
       + 1228.31237259015 x212 + 1495.01707637077 x213 + 1896.53462216695 x214
       + 1121.48401269868 x215 + 646.792790239315 x216 + 1349.24970421049 x217
       + 290.472341530498 x218 + 744.961226219488 x219 + 514.686487849999 x220
       + 384.188687464163 x221 + x222 + 714.616891102107 x223
       + 658.435542814589 x224 + 117.32810560277 x225 + 298.569668394024 x226
       + 925.192864537338 x227 + 1629.75371537715 x228 + 1741.98141197068 x229
       + 1183.40819647596 x230 + 542.121249133232 x231 + 123.595614687025 x232
       + 696.612261709101 x233 + 791.435600349496 x234 + 419.620558993902 x235
       + 748.984758639021 x236 + 878.020650098301 x237 + 714.616891102107 x238
       + x239 + 467.26775558576 x240 + 549.280407501209 x241
       + 214.263009663548 x242 + 745.946456389461 x243 + 1173.53025952631 x244
       + 1705.0782427292 x245 + 1264.42168533794 x246 + 489.89232095557 x247
       + 546.146457845585 x248 + 726.022451004193 x249 + 909.944372902089 x250
       + 864.292111706823 x251 + 1029.84500030561 x252 + 1016.32703429447 x253
       + 658.435542814589 x254 + 467.26775558576 x255 + x256 + 0 x257 + 0 x258
       + 0 x259 + 0 x260 + 0 x261 + 0 x262 + 0 x263 + 0 x264 + 0 x265 + 0 x266
       + 0 x267 + 0 x268 + 0 x269 + 0 x270 + 0 x271
Subject To
 c1:  x17 + x33 + x49 + x65 + x81 + x97 + x113 + x129 + x145 + x161 + x177
      + x193 + x209 + x225 + x241  = 1
 c2:  x2 + x34 + x50 + x66 + x82 + x98 + x114 + x130 + x146 + x162 + x178
      + x194 + x210 + x226 + x242  = 1
 c3:  x3 + x19 + x51 + x67 + x83 + x99 + x115 + x131 + x147 + x163 + x179
      + x195 + x211 + x227 + x243  = 1
 c4:  x4 + x20 + x36 + x68 + x84 + x100 + x116 + x132 + x148 + x164 + x180
      + x196 + x212 + x228 + x244  = 1
 c5:  x5 + x21 + x37 + x53 + x85 + x101 + x117 + x133 + x149 + x165 + x181
      + x197 + x213 + x229 + x245  = 1
 c6:  x6 + x22 + x38 + x54 + x70 + x102 + x118 + x134 + x150 + x166 + x182
      + x198 + x214 + x230 + x246  = 1
 c7:  x7 + x23 + x39 + x55 + x71 + x87 + x119 + x135 + x151 + x167 + x183
      + x199 + x215 + x231 + x247  = 1
 c8:  x8 + x24 + x40 + x56 + x72 + x88 + x104 + x136 + x152 + x168 + x184
      + x200 + x216 + x232 + x248  = 1
 c9:  x9 + x25 + x41 + x57 + x73 + x89 + x105 + x121 + x153 + x169 + x185
      + x201 + x217 + x233 + x249  = 1
 c10: x10 + x26 + x42 + x58 + x74 + x90 + x106 + x122 + x138 + x170 + x186
      + x202 + x218 + x234 + x250  = 1
 c11: x11 + x27 + x43 + x59 + x75 + x91 + x107 + x123 + x139 + x155 + x187
      + x203 + x219 + x235 + x251  = 1
 c12: x12 + x28 + x44 + x60 + x76 + x92 + x108 + x124 + x140 + x156 + x172
      + x204 + x220 + x236 + x252  = 1
 c13: x13 + x29 + x45 + x61 + x77 + x93 + x109 + x125 + x141 + x157 + x173
      + x189 + x221 + x237 + x253  = 1
 c14: x14 + x30 + x46 + x62 + x78 + x94 + x110 + x126 + x142 + x158 + x174
      + x190 + x206 + x238 + x254  = 1
 c15: x15 + x31 + x47 + x63 + x79 + x95 + x111 + x127 + x143 + x159 + x175
      + x191 + x207 + x223 + x255  = 1
 c16: x16 + x32 + x48 + x64 + x80 + x96 + x112 + x128 + x144 + x160 + x176
      + x192 + x208 + x224 + x240  = 1
 c17: x2 + x3 + x4 + x5 + x6 + x7 + x8 + x9 + x10 + x11 + x12 + x13 + x14 + x15
      + x16  = 1
 c18: x17 + x19 + x20 + x21 + x22 + x23 + x24 + x25 + x26 + x27 + x28 + x29
      + x30 + x31 + x32  = 1
 c19: x33 + x34 + x36 + x37 + x38 + x39 + x40 + x41 + x42 + x43 + x44 + x45
      + x46 + x47 + x48  = 1
 c20: x49 + x50 + x51 + x53 + x54 + x55 + x56 + x57 + x58 + x59 + x60 + x61
      + x62 + x63 + x64  = 1
 c21: x65 + x66 + x67 + x68 + x70 + x71 + x72 + x73 + x74 + x75 + x76 + x77
      + x78 + x79 + x80  = 1
 c22: x81 + x82 + x83 + x84 + x85 + x87 + x88 + x89 + x90 + x91 + x92 + x93
      + x94 + x95 + x96  = 1
 c23: x97 + x98 + x99 + x100 + x101 + x102 + x104 + x105 + x106 + x107 + x108
      + x109 + x110 + x111 + x112  = 1
 c24: x113 + x114 + x115 + x116 + x117 + x118 + x119 + x121 + x122 + x123
      + x124 + x125 + x126 + x127 + x128  = 1
 c25: x129 + x130 + x131 + x132 + x133 + x134 + x135 + x136 + x138 + x139
      + x140 + x141 + x142 + x143 + x144  = 1
 c26: x145 + x146 + x147 + x148 + x149 + x150 + x151 + x152 + x153 + x155
      + x156 + x157 + x158 + x159 + x160  = 1
 c27: x161 + x162 + x163 + x164 + x165 + x166 + x167 + x168 + x169 + x170
      + x172 + x173 + x174 + x175 + x176  = 1
 c28: x177 + x178 + x179 + x180 + x181 + x182 + x183 + x184 + x185 + x186
      + x187 + x189 + x190 + x191 + x192  = 1
 c29: x193 + x194 + x195 + x196 + x197 + x198 + x199 + x200 + x201 + x202
      + x203 + x204 + x206 + x207 + x208  = 1
 c30: x209 + x210 + x211 + x212 + x213 + x214 + x215 + x216 + x217 + x218
      + x219 + x220 + x221 + x223 + x224  = 1
 c31: x225 + x226 + x227 + x228 + x229 + x230 + x231 + x232 + x233 + x234
      + x235 + x236 + x237 + x238 + x240  = 1
 c32: x241 + x242 + x243 + x244 + x245 + x246 + x247 + x248 + x249 + x250
      + x251 + x252 + x253 + x254 + x255  = 1
Lazy Constraints
 l1:   x257 - x258 + 15 x19 <= 14
 l2:   x257 - x259 + 15 x20 <= 14
 l3:   x257 - x260 + 15 x21 <= 14
 l4:   x257 - x261 + 15 x22 <= 14
 l5:   x257 - x262 + 15 x23 <= 14
 l6:   x257 - x263 + 15 x24 <= 14
 l7:   x257 - x264 + 15 x25 <= 14
 l8:   x257 - x265 + 15 x26 <= 14
 l9:   x257 - x266 + 15 x27 <= 14
 l10:  x257 - x267 + 15 x28 <= 14
 l11:  x257 - x268 + 15 x29 <= 14
 l12:  x257 - x269 + 15 x30 <= 14
 l13:  x257 - x270 + 15 x31 <= 14
 l14:  x257 - x271 + 15 x32 <= 14
 l15:  x258 - x257 + 15 x34 <= 14
 l16:  x258 - x259 + 15 x36 <= 14
 l17:  x258 - x260 + 15 x37 <= 14
 l18:  x258 - x261 + 15 x38 <= 14
 l19:  x258 - x262 + 15 x39 <= 14
 l20:  x258 - x263 + 15 x40 <= 14
 l21:  x258 - x264 + 15 x41 <= 14
 l22:  x258 - x265 + 15 x42 <= 14
 l23:  x258 - x266 + 15 x43 <= 14
 l24:  x258 - x267 + 15 x44 <= 14
 l25:  x258 - x268 + 15 x45 <= 14
 l26:  x258 - x269 + 15 x46 <= 14
 l27:  x258 - x270 + 15 x47 <= 14
 l28:  x258 - x271 + 15 x48 <= 14
 l29:  x259 - x257 + 15 x50 <= 14
 l30:  x259 - x258 + 15 x51 <= 14
 l31:  x259 - x260 + 15 x53 <= 14
 l32:  x259 - x261 + 15 x54 <= 14
 l33:  x259 - x262 + 15 x55 <= 14
 l34:  x259 - x263 + 15 x56 <= 14
 l35:  x259 - x264 + 15 x57 <= 14
 l36:  x259 - x265 + 15 x58 <= 14
 l37:  x259 - x266 + 15 x59 <= 14
 l38:  x259 - x267 + 15 x60 <= 14
 l39:  x259 - x268 + 15 x61 <= 14
 l40:  x259 - x269 + 15 x62 <= 14
 l41:  x259 - x270 + 15 x63 <= 14
 l42:  x259 - x271 + 15 x64 <= 14
 l43:  x260 - x257 + 15 x66 <= 14
 l44:  x260 - x258 + 15 x67 <= 14
 l45:  x260 - x259 + 15 x68 <= 14
 l46:  x260 - x261 + 15 x70 <= 14
 l47:  x260 - x262 + 15 x71 <= 14
 l48:  x260 - x263 + 15 x72 <= 14
 l49:  x260 - x264 + 15 x73 <= 14
 l50:  x260 - x265 + 15 x74 <= 14
 l51:  x260 - x266 + 15 x75 <= 14
 l52:  x260 - x267 + 15 x76 <= 14
 l53:  x260 - x268 + 15 x77 <= 14
 l54:  x260 - x269 + 15 x78 <= 14
 l55:  x260 - x270 + 15 x79 <= 14
 l56:  x260 - x271 + 15 x80 <= 14
 l57:  x261 - x257 + 15 x82 <= 14
 l58:  x261 - x258 + 15 x83 <= 14
 l59:  x261 - x259 + 15 x84 <= 14
 l60:  x261 - x260 + 15 x85 <= 14
 l61:  x261 - x262 + 15 x87 <= 14
 l62:  x261 - x263 + 15 x88 <= 14
 l63:  x261 - x264 + 15 x89 <= 14
 l64:  x261 - x265 + 15 x90 <= 14
 l65:  x261 - x266 + 15 x91 <= 14
 l66:  x261 - x267 + 15 x92 <= 14
 l67:  x261 - x268 + 15 x93 <= 14
 l68:  x261 - x269 + 15 x94 <= 14
 l69:  x261 - x270 + 15 x95 <= 14
 l70:  x261 - x271 + 15 x96 <= 14
 l71:  x262 - x257 + 15 x98 <= 14
 l72:  x262 - x258 + 15 x99 <= 14
 l73:  x262 - x259 + 15 x100 <= 14
 l74:  x262 - x260 + 15 x101 <= 14
 l75:  x262 - x261 + 15 x102 <= 14
 l76:  x262 - x263 + 15 x104 <= 14
 l77:  x262 - x264 + 15 x105 <= 14
 l78:  x262 - x265 + 15 x106 <= 14
 l79:  x262 - x266 + 15 x107 <= 14
 l80:  x262 - x267 + 15 x108 <= 14
 l81:  x262 - x268 + 15 x109 <= 14
 l82:  x262 - x269 + 15 x110 <= 14
 l83:  x262 - x270 + 15 x111 <= 14
 l84:  x262 - x271 + 15 x112 <= 14
 l85:  x263 - x257 + 15 x114 <= 14
 l86:  x263 - x258 + 15 x115 <= 14
 l87:  x263 - x259 + 15 x116 <= 14
 l88:  x263 - x260 + 15 x117 <= 14
 l89:  x263 - x261 + 15 x118 <= 14
 l90:  x263 - x262 + 15 x119 <= 14
 l91:  x263 - x264 + 15 x121 <= 14
 l92:  x263 - x265 + 15 x122 <= 14
 l93:  x263 - x266 + 15 x123 <= 14
 l94:  x263 - x267 + 15 x124 <= 14
 l95:  x263 - x268 + 15 x125 <= 14
 l96:  x263 - x269 + 15 x126 <= 14
 l97:  x263 - x270 + 15 x127 <= 14
 l98:  x263 - x271 + 15 x128 <= 14
 l99:  x264 - x257 + 15 x130 <= 14
 l100: x264 - x258 + 15 x131 <= 14
 l101: x264 - x259 + 15 x132 <= 14
 l102: x264 - x260 + 15 x133 <= 14
 l103: x264 - x261 + 15 x134 <= 14
 l104: x264 - x262 + 15 x135 <= 14
 l105: x264 - x263 + 15 x136 <= 14
 l106: x264 - x265 + 15 x138 <= 14
 l107: x264 - x266 + 15 x139 <= 14
 l108: x264 - x267 + 15 x140 <= 14
 l109: x264 - x268 + 15 x141 <= 14
 l110: x264 - x269 + 15 x142 <= 14
 l111: x264 - x270 + 15 x143 <= 14
 l112: x264 - x271 + 15 x144 <= 14
 l113: x265 - x257 + 15 x146 <= 14
 l114: x265 - x258 + 15 x147 <= 14
 l115: x265 - x259 + 15 x148 <= 14
 l116: x265 - x260 + 15 x149 <= 14
 l117: x265 - x261 + 15 x150 <= 14
 l118: x265 - x262 + 15 x151 <= 14
 l119: x265 - x263 + 15 x152 <= 14
 l120: x265 - x264 + 15 x153 <= 14
 l121: x265 - x266 + 15 x155 <= 14
 l122: x265 - x267 + 15 x156 <= 14
 l123: x265 - x268 + 15 x157 <= 14
 l124: x265 - x269 + 15 x158 <= 14
 l125: x265 - x270 + 15 x159 <= 14
 l126: x265 - x271 + 15 x160 <= 14
 l127: x266 - x257 + 15 x162 <= 14
 l128: x266 - x258 + 15 x163 <= 14
 l129: x266 - x259 + 15 x164 <= 14
 l130: x266 - x260 + 15 x165 <= 14
 l131: x266 - x261 + 15 x166 <= 14
 l132: x266 - x262 + 15 x167 <= 14
 l133: x266 - x263 + 15 x168 <= 14
 l134: x266 - x264 + 15 x169 <= 14
 l135: x266 - x265 + 15 x170 <= 14
 l136: x266 - x267 + 15 x172 <= 14
 l137: x266 - x268 + 15 x173 <= 14
 l138: x266 - x269 + 15 x174 <= 14
 l139: x266 - x270 + 15 x175 <= 14
 l140: x266 - x271 + 15 x176 <= 14
 l141: x267 - x257 + 15 x178 <= 14
 l142: x267 - x258 + 15 x179 <= 14
 l143: x267 - x259 + 15 x180 <= 14
 l144: x267 - x260 + 15 x181 <= 14
 l145: x267 - x261 + 15 x182 <= 14
 l146: x267 - x262 + 15 x183 <= 14
 l147: x267 - x263 + 15 x184 <= 14
 l148: x267 - x264 + 15 x185 <= 14
 l149: x267 - x265 + 15 x186 <= 14
 l150: x267 - x266 + 15 x187 <= 14
 l151: x267 - x268 + 15 x189 <= 14
 l152: x267 - x269 + 15 x190 <= 14
 l153: x267 - x270 + 15 x191 <= 14
 l154: x267 - x271 + 15 x192 <= 14
 l155: x268 - x257 + 15 x194 <= 14
 l156: x268 - x258 + 15 x195 <= 14
 l157: x268 - x259 + 15 x196 <= 14
 l158: x268 - x260 + 15 x197 <= 14
 l159: x268 - x261 + 15 x198 <= 14
 l160: x268 - x262 + 15 x199 <= 14
 l161: x268 - x263 + 15 x200 <= 14
 l162: x268 - x264 + 15 x201 <= 14
 l163: x268 - x265 + 15 x202 <= 14
 l164: x268 - x266 + 15 x203 <= 14
 l165: x268 - x267 + 15 x204 <= 14
 l166: x268 - x269 + 15 x206 <= 14
 l167: x268 - x270 + 15 x207 <= 14
 l168: x268 - x271 + 15 x208 <= 14
 l169: x269 - x257 + 15 x210 <= 14
 l170: x269 - x258 + 15 x211 <= 14
 l171: x269 - x259 + 15 x212 <= 14
 l172: x269 - x260 + 15 x213 <= 14
 l173: x269 - x261 + 15 x214 <= 14
 l174: x269 - x262 + 15 x215 <= 14
 l175: x269 - x263 + 15 x216 <= 14
 l176: x269 - x264 + 15 x217 <= 14
 l177: x269 - x265 + 15 x218 <= 14
 l178: x269 - x266 + 15 x219 <= 14
 l179: x269 - x267 + 15 x220 <= 14
 l180: x269 - x268 + 15 x221 <= 14
 l181: x269 - x270 + 15 x223 <= 14
 l182: x269 - x271 + 15 x224 <= 14
 l183: x270 - x257 + 15 x226 <= 14
 l184: x270 - x258 + 15 x227 <= 14
 l185: x270 - x259 + 15 x228 <= 14
 l186: x270 - x260 + 15 x229 <= 14
 l187: x270 - x261 + 15 x230 <= 14
 l188: x270 - x262 + 15 x231 <= 14
 l189: x270 - x263 + 15 x232 <= 14
 l190: x270 - x264 + 15 x233 <= 14
 l191: x270 - x265 + 15 x234 <= 14
 l192: x270 - x266 + 15 x235 <= 14
 l193: x270 - x267 + 15 x236 <= 14
 l194: x270 - x268 + 15 x237 <= 14
 l195: x270 - x269 + 15 x238 <= 14
 l196: x270 - x271 + 15 x240 <= 14
 l197: x271 - x257 + 15 x242 <= 14
 l198: x271 - x258 + 15 x243 <= 14
 l199: x271 - x259 + 15 x244 <= 14
 l200: x271 - x260 + 15 x245 <= 14
 l201: x271 - x261 + 15 x246 <= 14
 l202: x271 - x262 + 15 x247 <= 14
 l203: x271 - x263 + 15 x248 <= 14
 l204: x271 - x264 + 15 x249 <= 14
 l205: x271 - x265 + 15 x250 <= 14
 l206: x271 - x266 + 15 x251 <= 14
 l207: x271 - x267 + 15 x252 <= 14
 l208: x271 - x268 + 15 x253 <= 14
 l209: x271 - x269 + 15 x254 <= 14
 l210: x271 - x270 + 15 x255 <= 14
 l211: x2 + x17 <= 1
 l212: x3 + x33 <= 1
 l213: x4 + x49 <= 1
 l214: x5 + x65 <= 1
 l215: x6 + x81 <= 1
 l216: x7 + x97 <= 1
 l217: x8 + x113 <= 1
 l218: x9 + x129 <= 1
 l219: x10 + x145 <= 1
 l220: x11 + x161 <= 1
 l221: x12 + x177 <= 1
 l222: x13 + x193 <= 1
 l223: x14 + x209 <= 1
 l224: x15 + x225 <= 1
 l225: x16 + x241 <= 1
 l226: x19 + x34 <= 1
 l227: x20 + x50 <= 1
 l228: x21 + x66 <= 1
 l229: x22 + x82 <= 1
 l230: x23 + x98 <= 1
 l231: x24 + x114 <= 1
 l232: x25 + x130 <= 1
 l233: x26 + x146 <= 1
 l234: x27 + x162 <= 1
 l235: x28 + x178 <= 1
 l236: x29 + x194 <= 1
 l237: x30 + x210 <= 1
 l238: x31 + x226 <= 1
 l239: x32 + x242 <= 1
 l240: x36 + x51 <= 1
 l241: x37 + x67 <= 1
 l242: x38 + x83 <= 1
 l243: x39 + x99 <= 1
 l244: x40 + x115 <= 1
 l245: x41 + x131 <= 1
 l246: x42 + x147 <= 1
 l247: x43 + x163 <= 1
 l248: x44 + x179 <= 1
 l249: x45 + x195 <= 1
 l250: x46 + x211 <= 1
 l251: x47 + x227 <= 1
 l252: x48 + x243 <= 1
 l253: x53 + x68 <= 1
 l254: x54 + x84 <= 1
 l255: x55 + x100 <= 1
 l256: x56 + x116 <= 1
 l257: x57 + x132 <= 1
 l258: x58 + x148 <= 1
 l259: x59 + x164 <= 1
 l260: x60 + x180 <= 1
 l261: x61 + x196 <= 1
 l262: x62 + x212 <= 1
 l263: x63 + x228 <= 1
 l264: x64 + x244 <= 1
 l265: x70 + x85 <= 1
 l266: x71 + x101 <= 1
 l267: x72 + x117 <= 1
 l268: x73 + x133 <= 1
 l269: x74 + x149 <= 1
 l270: x75 + x165 <= 1
 l271: x76 + x181 <= 1
 l272: x77 + x197 <= 1
 l273: x78 + x213 <= 1
 l274: x79 + x229 <= 1
 l275: x80 + x245 <= 1
 l276: x87 + x102 <= 1
 l277: x88 + x118 <= 1
 l278: x89 + x134 <= 1
 l279: x90 + x150 <= 1
 l280: x91 + x166 <= 1
 l281: x92 + x182 <= 1
 l282: x93 + x198 <= 1
 l283: x94 + x214 <= 1
 l284: x95 + x230 <= 1
 l285: x96 + x246 <= 1
 l286: x104 + x119 <= 1
 l287: x105 + x135 <= 1
 l288: x106 + x151 <= 1
 l289: x107 + x167 <= 1
 l290: x108 + x183 <= 1
 l291: x109 + x199 <= 1
 l292: x110 + x215 <= 1
 l293: x111 + x231 <= 1
 l294: x112 + x247 <= 1
 l295: x121 + x136 <= 1
 l296: x122 + x152 <= 1
 l297: x123 + x168 <= 1
 l298: x124 + x184 <= 1
 l299: x125 + x200 <= 1
 l300: x126 + x216 <= 1
 l301: x127 + x232 <= 1
 l302: x128 + x248 <= 1
 l303: x138 + x153 <= 1
 l304: x139 + x169 <= 1
 l305: x140 + x185 <= 1
 l306: x141 + x201 <= 1
 l307: x142 + x217 <= 1
 l308: x143 + x233 <= 1
 l309: x144 + x249 <= 1
 l310: x155 + x170 <= 1
 l311: x156 + x186 <= 1
 l312: x157 + x202 <= 1
 l313: x158 + x218 <= 1
 l314: x159 + x234 <= 1
 l315: x160 + x250 <= 1
 l316: x172 + x187 <= 1
 l317: x173 + x203 <= 1
 l318: x174 + x219 <= 1
 l319: x175 + x235 <= 1
 l320: x176 + x251 <= 1
 l321: x189 + x204 <= 1
 l322: x190 + x220 <= 1
 l323: x191 + x236 <= 1
 l324: x192 + x252 <= 1
 l325: x206 + x221 <= 1
 l326: x207 + x237 <= 1
 l327: x208 + x253 <= 1
 l328: x223 + x238 <= 1
 l329: x224 + x254 <= 1
 l330: x240 + x255 <= 1
Bounds
      x1 = 0
 0 <= x2 <= 1
 0 <= x3 <= 1
 0 <= x4 <= 1
 0 <= x5 <= 1
 0 <= x6 <= 1
 0 <= x7 <= 1
 0 <= x8 <= 1
 0 <= x9 <= 1
 0 <= x10 <= 1
 0 <= x11 <= 1
 0 <= x12 <= 1
 0 <= x13 <= 1
 0 <= x14 <= 1
 0 <= x15 <= 1
 0 <= x16 <= 1
 0 <= x17 <= 1
      x18 = 0
 0 <= x19 <= 1
 0 <= x20 <= 1
 0 <= x21 <= 1
 0 <= x22 <= 1
 0 <= x23 <= 1
 0 <= x24 <= 1
 0 <= x25 <= 1
 0 <= x26 <= 1
 0 <= x27 <= 1
 0 <= x28 <= 1
 0 <= x29 <= 1
 0 <= x30 <= 1
 0 <= x31 <= 1
 0 <= x32 <= 1
 0 <= x33 <= 1
 0 <= x34 <= 1
      x35 = 0
 0 <= x36 <= 1
 0 <= x37 <= 1
 0 <= x38 <= 1
 0 <= x39 <= 1
 0 <= x40 <= 1
 0 <= x41 <= 1
 0 <= x42 <= 1
 0 <= x43 <= 1
 0 <= x44 <= 1
 0 <= x45 <= 1
 0 <= x46 <= 1
 0 <= x47 <= 1
 0 <= x48 <= 1
 0 <= x49 <= 1
 0 <= x50 <= 1
 0 <= x51 <= 1
      x52 = 0
 0 <= x53 <= 1
 0 <= x54 <= 1
 0 <= x55 <= 1
 0 <= x56 <= 1
 0 <= x57 <= 1
 0 <= x58 <= 1
 0 <= x59 <= 1
 0 <= x60 <= 1
 0 <= x61 <= 1
 0 <= x62 <= 1
 0 <= x63 <= 1
 0 <= x64 <= 1
 0 <= x65 <= 1
 0 <= x66 <= 1
 0 <= x67 <= 1
 0 <= x68 <= 1
      x69 = 0
 0 <= x70 <= 1
 0 <= x71 <= 1
 0 <= x72 <= 1
 0 <= x73 <= 1
 0 <= x74 <= 1
 0 <= x75 <= 1
 0 <= x76 <= 1
 0 <= x77 <= 1
 0 <= x78 <= 1
 0 <= x79 <= 1
 0 <= x80 <= 1
 0 <= x81 <= 1
 0 <= x82 <= 1
 0 <= x83 <= 1
 0 <= x84 <= 1
 0 <= x85 <= 1
      x86 = 0
 0 <= x87 <= 1
 0 <= x88 <= 1
 0 <= x89 <= 1
 0 <= x90 <= 1
 0 <= x91 <= 1
 0 <= x92 <= 1
 0 <= x93 <= 1
 0 <= x94 <= 1
 0 <= x95 <= 1
 0 <= x96 <= 1
 0 <= x97 <= 1
 0 <= x98 <= 1
 0 <= x99 <= 1
 0 <= x100 <= 1
 0 <= x101 <= 1
 0 <= x102 <= 1
      x103 = 0
 0 <= x104 <= 1
 0 <= x105 <= 1
 0 <= x106 <= 1
 0 <= x107 <= 1
 0 <= x108 <= 1
 0 <= x109 <= 1
 0 <= x110 <= 1
 0 <= x111 <= 1
 0 <= x112 <= 1
 0 <= x113 <= 1
 0 <= x114 <= 1
 0 <= x115 <= 1
 0 <= x116 <= 1
 0 <= x117 <= 1
 0 <= x118 <= 1
 0 <= x119 <= 1
      x120 = 0
 0 <= x121 <= 1
 0 <= x122 <= 1
 0 <= x123 <= 1
 0 <= x124 <= 1
 0 <= x125 <= 1
 0 <= x126 <= 1
 0 <= x127 <= 1
 0 <= x128 <= 1
 0 <= x129 <= 1
 0 <= x130 <= 1
 0 <= x131 <= 1
 0 <= x132 <= 1
 0 <= x133 <= 1
 0 <= x134 <= 1
 0 <= x135 <= 1
 0 <= x136 <= 1
      x137 = 0
 0 <= x138 <= 1
 0 <= x139 <= 1
 0 <= x140 <= 1
 0 <= x141 <= 1
 0 <= x142 <= 1
 0 <= x143 <= 1
 0 <= x144 <= 1
 0 <= x145 <= 1
 0 <= x146 <= 1
 0 <= x147 <= 1
 0 <= x148 <= 1
 0 <= x149 <= 1
 0 <= x150 <= 1
 0 <= x151 <= 1
 0 <= x152 <= 1
 0 <= x153 <= 1
      x154 = 0
 0 <= x155 <= 1
 0 <= x156 <= 1
 0 <= x157 <= 1
 0 <= x158 <= 1
 0 <= x159 <= 1
 0 <= x160 <= 1
 0 <= x161 <= 1
 0 <= x162 <= 1
 0 <= x163 <= 1
 0 <= x164 <= 1
 0 <= x165 <= 1
 0 <= x166 <= 1
 0 <= x167 <= 1
 0 <= x168 <= 1
 0 <= x169 <= 1
 0 <= x170 <= 1
      x171 = 0
 0 <= x172 <= 1
 0 <= x173 <= 1
 0 <= x174 <= 1
 0 <= x175 <= 1
 0 <= x176 <= 1
 0 <= x177 <= 1
 0 <= x178 <= 1
 0 <= x179 <= 1
 0 <= x180 <= 1
 0 <= x181 <= 1
 0 <= x182 <= 1
 0 <= x183 <= 1
 0 <= x184 <= 1
 0 <= x185 <= 1
 0 <= x186 <= 1
 0 <= x187 <= 1
      x188 = 0
 0 <= x189 <= 1
 0 <= x190 <= 1
 0 <= x191 <= 1
 0 <= x192 <= 1
 0 <= x193 <= 1
 0 <= x194 <= 1
 0 <= x195 <= 1
 0 <= x196 <= 1
 0 <= x197 <= 1
 0 <= x198 <= 1
 0 <= x199 <= 1
 0 <= x200 <= 1
 0 <= x201 <= 1
 0 <= x202 <= 1
 0 <= x203 <= 1
 0 <= x204 <= 1
      x205 = 0
 0 <= x206 <= 1
 0 <= x207 <= 1
 0 <= x208 <= 1
 0 <= x209 <= 1
 0 <= x210 <= 1
 0 <= x211 <= 1
 0 <= x212 <= 1
 0 <= x213 <= 1
 0 <= x214 <= 1
 0 <= x215 <= 1
 0 <= x216 <= 1
 0 <= x217 <= 1
 0 <= x218 <= 1
 0 <= x219 <= 1
 0 <= x220 <= 1
 0 <= x221 <= 1
      x222 = 0
 0 <= x223 <= 1
 0 <= x224 <= 1
 0 <= x225 <= 1
 0 <= x226 <= 1
 0 <= x227 <= 1
 0 <= x228 <= 1
 0 <= x229 <= 1
 0 <= x230 <= 1
 0 <= x231 <= 1
 0 <= x232 <= 1
 0 <= x233 <= 1
 0 <= x234 <= 1
 0 <= x235 <= 1
 0 <= x236 <= 1
 0 <= x237 <= 1
 0 <= x238 <= 1
      x239 = 0
 0 <= x240 <= 1
 0 <= x241 <= 1
 0 <= x242 <= 1
 0 <= x243 <= 1
 0 <= x244 <= 1
 0 <= x245 <= 1
 0 <= x246 <= 1
 0 <= x247 <= 1
 0 <= x248 <= 1
 0 <= x249 <= 1
 0 <= x250 <= 1
 0 <= x251 <= 1
 0 <= x252 <= 1
 0 <= x253 <= 1
 0 <= x254 <= 1
 0 <= x255 <= 1
      x256 = 0
 1 <= x257 <= 15
 1 <= x258 <= 15
 1 <= x259 <= 15
 1 <= x260 <= 15
 1 <= x261 <= 15
 1 <= x262 <= 15
 1 <= x263 <= 15
 1 <= x264 <= 15
 1 <= x265 <= 15
 1 <= x266 <= 15
 1 <= x267 <= 15
 1 <= x268 <= 15
 1 <= x269 <= 15
 1 <= x270 <= 15
 1 <= x271 <= 15
Binaries
 x1  x2  x3  x4  x5  x6  x7  x8  x9  x10  x11  x12  x13  x14  x15  x16  x17 
 x18  x19  x20  x21  x22  x23  x24  x25  x26  x27  x28  x29  x30  x31  x32 
 x33  x34  x35  x36  x37  x38  x39  x40  x41  x42  x43  x44  x45  x46  x47 
 x48  x49  x50  x51  x52  x53  x54  x55  x56  x57  x58  x59  x60  x61  x62 
 x63  x64  x65  x66  x67  x68  x69  x70  x71  x72  x73  x74  x75  x76  x77 
 x78  x79  x80  x81  x82  x83  x84  x85  x86  x87  x88  x89  x90  x91  x92 
 x93  x94  x95  x96  x97  x98  x99  x100  x101  x102  x103  x104  x105  x106 
 x107  x108  x109  x110  x111  x112  x113  x114  x115  x116  x117  x118  x119 
 x120  x121  x122  x123  x124  x125  x126  x127  x128  x129  x130  x131  x132 
 x133  x134  x135  x136  x137  x138  x139  x140  x141  x142  x143  x144  x145 
 x146  x147  x148  x149  x150  x151  x152  x153  x154  x155  x156  x157  x158 
 x159  x160  x161  x162  x163  x164  x165  x166  x167  x168  x169  x170  x171 
 x172  x173  x174  x175  x176  x177  x178  x179  x180  x181  x182  x183  x184 
 x185  x186  x187  x188  x189  x190  x191  x192  x193  x194  x195  x196  x197 
 x198  x199  x200  x201  x202  x203  x204  x205  x206  x207  x208  x209  x210 
 x211  x212  x213  x214  x215  x216  x217  x218  x219  x220  x221  x222  x223 
 x224  x225  x226  x227  x228  x229  x230  x231  x232  x233  x234  x235  x236 
 x237  x238  x239  x240  x241  x242  x243  x244  x245  x246  x247  x248  x249 
 x250  x251  x252  x253  x254  x255  x256 
Generals
 x257  x258  x259  x260  x261  x262  x263  x264  x265  x266  x267  x268  x269 
 x270  x271 
End
